c A SAT instance generated from a 7-CNF formula that had 13 clauses and 16 variables
p cnf 16 13
-3 -9 -10 -16 -1 7 -11 0
-9 5 -4 6 -14 -10 2 0
-2 15 -14 13 6 -4 -8 0
-13 -11 -6 -2 15 -1 -7 0
-5 8 9 3 -10 14 -1 0
2 10 -5 -15 -13 7 16 0
-7 10 16 8 -6 11 15 0
9 -3 -2 -10 -14 -11 -7 0
12 -14 6 -3 11 2 -5 0
7 11 -5 16 -3 1 8 0
14 6 11 -2 -12 -1 -7 0
-4 8 -14 3 10 7 16 0
-12 -4 14 -16 3 11 5 0
